(set-logic QF_NRA)
(declare-fun skoB () Real)
(declare-fun skoA () Real)
(declare-fun skoS () Real)
(assert (and (not (<= (+ (* 100 skoS) (* (- 207) (* skoB skoS)) (* 100 (* skoB skoB)) (* (- 100) (* skoB skoA))) 0)) (and (not (<= skoB 1)) (and (not (<= skoS 0)) (and (not (<= skoA 0)) (and (not (<= (* (- 1) skoB) (- 2))) (not (<= (+ skoB (* (- 1) skoA)) 0))))))))
(set-info :status sat)
(check-sat)
